--- Job or_report_1.6_mA_8h.gms Start 06/08/20 09:54:52 28.2.0 r750fa45 WEX-WEI x86 64bit/MS Windows
--- GAMS Parameters defined
    Input D:\Onedrive\Documents\GAMSStudio\or_report_1.6_model_A_multinode\8nodes\or_report_1.6_mA_8h.gms
    PageSize 0
    ScrDir D:\Onedrive\Documents\GAMSStudio\or_report_1.6_model_A_multinode\8nodes\225a\
    SysDir D:\GAMS\win64\28.2\
    LogOption 3
    ErrMsg 1
    ErrorLog 99
    IDE 1
    LstTitleLeftAligned 1
GAMS 28.2.0   Copyright (C) 1987-2019 GAMS Development. All rights reserved
Licensee: GAMS Development Corporation, USA              G871201/0000CA-ANY
          Free Demo, +1 202-342-0180, support@gams.com, www.gams.com DC0000
--- Starting compilation
--- or_report_1.6_mA_8h.gms(9) 3 Mb
--- . or_report.1.6_cost_mA_8h.csv(9) 3 Mb
--- or_report_1.6_mA_8h.gms(14) 3 Mb
--- . or_report.1.6_maxflow_mA_8h.csv(9) 3 Mb
--- or_report_1.6_mA_8h.gms(125) 3 Mb
--- call gdxdump or_report.1.6_mA_8h.gdx symb=cost CSVSetText format=csv header = "cost(iter)">> or_report.1.6_mA_8h_out_cost.csv
--- or_report_1.6_mA_8h.gms(126) 3 Mb
--- call gdxdump or_report.1.6_mA_8h.gdx symb=isfeasible CSVSetText format=csv header = "isfeasible(iter)">> or_report.1.6_mA_8h_out_isfeasible.csv
--- or_report_1.6_mA_8h.gms(127) 3 Mb
--- call gdxdump or_report.1.6_mA_8h.gdx symb=remain CSVSetText format=csv header ="remain(iter)">> or_report.1.6_mA_8h_out_remain.csv
--- or_report_1.6_mA_8h.gms(128) 3 Mb
--- call gdxdump or_report.1.6_mA_8h.gdx symb=remainrate CSVSetText format=csv header = "remainrate(iter)">> or_report.1.6_mA_8h_out_remainrate.csv
--- or_report_1.6_mA_8h.gms(129) 3 Mb
--- Starting execution: elapsed 0:00:00.139
--- Generating LP model demo_1
--- or_report_1.6_mA_8h.gms(103) 4 Mb
---   74 rows  66 columns  236 non-zeroes
--- Executing CPLEX: elapsed 0:00:00.144

IBM ILOG CPLEX   28.2.0 r750fa45 Released Aug 19, 2019 WEI x86 64bit/MS Window
Cplex 12.9.0.0

Reading data...
Starting Cplex...
Space for names approximately 0.00 Mb
Use option 'names no' to turn use of names off
CPXPARAM_Advance                                 0
CPXPARAM_Threads                                 1
CPXPARAM_Parallel                                1
CPXPARAM_Simplex_Limits_Iterations               2000000000
CPXPARAM_TimeLimit                               1000
CPXPARAM_Tune_TimeLimit                          200
Tried aggregator 1 time.
LP Presolve eliminated 66 rows and 11 columns.
Reduced LP has 8 rows, 55 columns, and 110 nonzeros.
Presolve time = 0.00 sec. (0.07 ticks)
Symmetry aggregator did 27 additional substitutions.

Iteration log . . .
Iteration:     1   Dual infeasibility =             0.015000
Iteration:     6   Dual objective     =            34.400000

Dual crossover.
  Dual:  Fixing 2 variables.
        1 DMoves:  Infeasibility  0.00000000e+00  Objective  6.53501875e+01
        0 DMoves:  Infeasibility  0.00000000e+00  Objective  6.53501875e+01
  Dual:  Pushed 1, exchanged 1.
  Primal:  Fixed no variables.
LP status(1): optimal
Cplex Time: 0.00sec (det. 0.13 ticks)

Optimal solution found.
Objective :          65.350188

--- Restarting execution
--- or_report_1.6_mA_8h.gms(103) 2 Mb
--- Reading solution for model demo_1
--- Executing after solve: elapsed 0:00:00.228
--- or_report_1.6_mA_8h.gms(112) 3 Mb
*** Status: Normal completion
--- Job or_report_1.6_mA_8h.gms Stop 06/08/20 09:54:52 elapsed 0:00:00.228
